NAME: test1794
TYPE: TSP
DIMENSION: 11
EDGE_WEIGHT_TYPE: EUC_2D
NODE_COORD_SECTION
1 51.499421944891644 13.244327411103086
2 35.24297068365729 10.202437039493672
3 30.2693928102461 57.23072879280221
4 89.38316076746192 65.25845238633222
5 52.84325988112951 69.22848091074427
6 11.62923378075078 25.809458296425213
7 24.821946194887257 51.012435485643
8 98.11787902273197 13.186989843147224
9 15.02506444661501 9.521834581630628
10 9.40710077836685 85.05196004990142
11 85.96869776015161 33.146048382484125
EOF
